(assert (forall ((pkt_0_4_6_0  Int  )(state_group_0_state_0_5_7_0  Int  )(state_group_1_state_0_6_8_0  Int  )) (let ((_n0 state_group_1_state_0_6_8_0 ))
(let ((_n1 pkt_0_4_6_0 ))
(let ((_n2 (<   _n1   _n0 ) ))
(let ((_n3 state_group_0_state_0_5_7_0 ))
(let ((_n4 true ))
(let ((_n5 (+   _n3   (ite  _n4  1 0) ) ))
(let ((_n6 (ite  _n2   _n5   _n3  ) ))
(let ((_n7 (<   _n0   _n1 ) ))
(let ((_n8 false ))
(let ((_n9 (ite  _n7   _n1   (ite  _n8  1 0)  ) ))
(let ((_n10 (ite  _n7   (ite  _n8  1 0)   _n0  ) ))
(let ((_n11 (+   _n10   _n9 ) ))
(let ((_n12 (ite (=  (ite  _n7  1 0)  1)  _n11   _n0  ) ))
(let ((_n13 (<   _n1   _n12 ) ))
(let ((_n14 (+   _n3   (ite  _n13  1 0) ) ))
(let ((_n15 (=   _n14   _n6 ) ))
(let ((_n17 (ite  _n2   _n0   _n1  ) ))
(let ((_n18 (=   _n12   _n17 ) ))
(let ((_n20 (<   (ite  _n8  1 0)   _n1 ) ))
(let ((_n21 (ite  _n20   _n1   (ite  _n8  1 0)  ) ))
(let ((_n22 (ite (=  (ite  _n20  1 0)  1)  _n21   (ite  _n8  1 0)  ) ))
(let ((_n23 (ite (=  _n22  0)  _n22   (ite  _n8  1 0)  ) ))
(let ((_n24 (ite (=  _n22  0)  _n23   _n22  ) ))
(let ((_n25 (=   _n24   _n1 ) ))
(implies  (and (and (>= state_group_1_state_0_6_8_0 0) (< state_group_1_state_0_6_8_0 1024 ))  (and (and (>= state_group_0_state_0_5_7_0 0) (< state_group_0_state_0_5_7_0 1024 ))  (and (>= pkt_0_4_6_0 0) (< pkt_0_4_6_0 1024 )) ) )   (and  _n15  _n18  _n25 )  )))))))))))))))))))))))))))
(check-sat)
(get-model)
(exit)